(set-logic QF_UF)
(declare-fun A0 () Bool)
(declare-fun A1 () Bool)
(declare-fun A3 () Bool)
(declare-fun A4 () Bool)
(declare-fun A5 () Bool)
(declare-fun A6 () Bool)
(declare-fun A7 () Bool)
(declare-fun A8 () Bool)
(declare-fun A9 () Bool)
(declare-fun A10 () Bool)
(declare-fun A11 () Bool)
(declare-fun A12 () Bool)
(declare-fun A13 () Bool)
(declare-fun A14 () Bool)
(declare-fun A15 () Bool)
(declare-fun A16 () Bool)
(declare-fun A17 () Bool)
(declare-fun A18 () Bool)
(declare-fun A19 () Bool)
(declare-fun A20 () Bool)
(declare-fun A21 () Bool)
(declare-fun A22 () Bool)
(declare-fun A23 () Bool)
(declare-fun A24 () Bool)
(assert (let ((.def_0 (not A16))) (let ((.def_1 (or .def_0 A21))) (let ((.def_2 (not .def_1))) (let ((.def_3 (not A4))) (let ((.def_4 (and A10 .def_3))) (let ((.def_5 (and .def_4 .def_2))) (let ((.def_6 (not .def_5))) (let ((.def_7 (not A11))) (let ((.def_8 (and .def_3 .def_7))) (let ((.def_9 (not A10))) (let ((.def_10 (and .def_7 .def_9))) (let ((.def_11 (not .def_10))) (let ((.def_12 (and .def_11 .def_8))) (let ((.def_13 (and .def_12 .def_6))) (let ((.def_14 (not .def_13))) (let ((.def_15 (and A3 A11))) (let ((.def_16 (not .def_15))) (let ((.def_17 (not A20))) (let ((.def_18 (or A5 .def_17))) (let ((.def_19 (or .def_18 .def_16))) (let ((.def_20 (and .def_3 A13))) (let ((.def_21 (not .def_20))) (let ((.def_22 (and A1 A6))) (let ((.def_23 (not .def_22))) (let ((.def_24 (or .def_23 .def_21))) (let ((.def_25 (or .def_24 .def_19))) (let ((.def_26 (not .def_25))) (let ((.def_27 (or .def_26 .def_14))) (let ((.def_28 (not .def_27))) (let ((.def_29 (not A5))) (let ((.def_30 (not A21))) (let ((.def_31 (and .def_30 .def_29))) (let ((.def_32 (not A1))) (let ((.def_33 (and .def_9 .def_32))) (let ((.def_34 (or .def_33 .def_31))) (let ((.def_35 (not .def_34))) (let ((.def_36 (and A5 A19))) (let ((.def_37 (not A0))) (let ((.def_38 (or .def_37 A18))) (let ((.def_39 (and .def_38 .def_36))) (let ((.def_40 (not .def_39))) (let ((.def_41 (and .def_40 .def_35))) (let ((.def_42 (not .def_41))) (let ((.def_43 (and A15 A22))) (let ((.def_44 (not .def_43))) (let ((.def_45 (not A15))) (let ((.def_46 (or A9 .def_45))) (let ((.def_47 (and .def_46 .def_44))) (let ((.def_48 (and A20 .def_7))) (let ((.def_49 (not A19))) (let ((.def_50 (or .def_49 A4))) (let ((.def_51 (not .def_50))) (let ((.def_52 (or .def_51 .def_48))) (let ((.def_53 (or .def_52 .def_47))) (let ((.def_54 (or .def_53 .def_42))) (let ((.def_55 (or .def_54 .def_28))) (let ((.def_56 (and A13 .def_7))) (let ((.def_57 (not .def_56))) (let ((.def_58 (and A23 A7))) (let ((.def_59 (not .def_58))) (let ((.def_60 (and .def_59 .def_57))) (let ((.def_61 (and .def_3 A10))) (let ((.def_62 (or A6 A11))) (let ((.def_63 (and .def_62 .def_61))) (let ((.def_64 (and .def_63 .def_60))) (let ((.def_65 (not A3))) (let ((.def_66 (or .def_65 A10))) (let ((.def_67 (not A13))) (let ((.def_68 (and .def_67 A21))) (let ((.def_69 (not .def_68))) (let ((.def_70 (and .def_69 .def_66))) (let ((.def_71 (not A12))) (let ((.def_72 (or A14 .def_71))) (let ((.def_73 (not .def_72))) (let ((.def_74 (and .def_0 .def_71))) (let ((.def_75 (and .def_74 .def_73))) (let ((.def_76 (or .def_75 .def_70))) (let ((.def_77 (not .def_76))) (let ((.def_78 (or .def_77 .def_64))) (let ((.def_79 (not A8))) (let ((.def_80 (or .def_79 A3))) (let ((.def_81 (not A14))) (let ((.def_82 (not A7))) (let ((.def_83 (and .def_82 .def_81))) (let ((.def_84 (or .def_83 .def_80))) (let ((.def_85 (not .def_84))) (let ((.def_86 (not A17))) (let ((.def_87 (or .def_86 A24))) (let ((.def_88 (not .def_87))) (let ((.def_89 (or A3 .def_71))) (let ((.def_90 (not .def_89))) (let ((.def_91 (or .def_90 .def_88))) (let ((.def_92 (or .def_91 .def_85))) (let ((.def_93 (not .def_92))) (let ((.def_94 (or A1 .def_29))) (let ((.def_95 (not A6))) (let ((.def_96 (and .def_95 .def_45))) (let ((.def_97 (or .def_96 .def_94))) (let ((.def_98 (not .def_97))) (let ((.def_99 (or .def_32 .def_7))) (let ((.def_100 (not .def_99))) (let ((.def_101 (and A19 A20))) (let ((.def_102 (and .def_101 .def_100))) (let ((.def_103 (not .def_102))) (let ((.def_104 (and .def_103 .def_98))) (let ((.def_105 (not .def_104))) (let ((.def_106 (and .def_105 .def_93))) (let ((.def_107 (and .def_106 .def_78))) (let ((.def_108 (and .def_107 .def_55))) .def_108))))))))))))))))))))))))))))))))))))))))))))))))))))))))))))))))))))))))))))))))))))))))))))))))))))))))))))))
(check-sat)
